  6	51
 16
  0	 11	 18	 40	 12	 62	 69	 91	 13	  9	  3	 63	 64	 54	 60	103	
 12
  0	 20	 15	  7	 17	 68	 66	 58	 71	  1	 52	103	
 18
  0	 37	 34	 85	 88	 46	 28	 79	 97	 38	 10	 48	 16	 89	 61	 67	 99	103	
 14
  0	  4	  2	 41	 55	 31	 92	 42	 53	 29	 93	 82	 80	103	
 24
  0	 35	 22	 44	 86	 73	 95	 36	  8	 87	 21	 59	 24	 72	 30	 51	 23	 33	 75	 84	 81	 74	102	103	
 30
  0	 43	 47	 25	  5	 98	 76	 94	 49	 32	  6	 56	100	 50	 57	 83	101	 19	 45	 27	 96	 78	 26	 70	 39	 14	 90	 65	 77	103	
